
Gurobi 13.0.2 (win64) logging started Thu Jul 23 17:16:47 2026

Set parameter LogFile to value "E:\codes\ExactEBRP\results\gf_gurobi_performance_recovery_round29\runs\stage2__tight_T_seed5102__c3_replica__300s\external\native_logs\R.0.1.0.1.0.1.1.1.0.1_terminal_mip.gurobi.log"
Gurobi Optimizer version 13.0.2 build v13.0.2rc1 (win64 - Windows 10.0 (19045.2))

CPU model: 12th Gen Intel(R) Core(TM) i7-12700KF, instruction set [SSE2|AVX|AVX2]
Thread count: 12 physical cores, 20 logical processors, using up to 1 threads

Non-default parameters:
TimeLimit  175.7068864
MIPGap  0
MIPGapAbs  0
LogToConsole  0
Threads  1

Optimize a model with 11916 rows, 3378 columns and 67376 nonzeros (Min)
Model fingerprint: 0x491cf22a
Model has 21 linear objective coefficients
Variable types: 1686 continuous, 1692 integer (1492 binary)
Coefficient statistics:
  Matrix range     [7e-03, 2e+04]
  Objective range  [7e-03, 1e+00]
  Bounds range     [1e-01, 4e+02]
  RHS range        [8e-02, 5e+04]

Presolve removed 1278 rows and 74 columns
Presolve time: 0.18s
Presolved: 10638 rows, 3304 columns, 70922 nonzeros
Variable types: 1640 continuous, 1664 integer (1479 binary)

Root relaxation: objective 2.336572e-01, 4016 iterations, 0.21 seconds (0.59 work units)

    Nodes    |    Current Node    |     Objective Bounds      |     Work
 Expl Unexpl |  Obj  Depth IntInf | Incumbent    BestBd   Gap | It/Node Time

     0     0    0.23366    0  197          -    0.23366      -     -    0s
     0     0 infeasible    0               - infeasible      -     -    0s

Cutting planes:
  Learned: 3
  Gomory: 5
  Cover: 23
  Implied bound: 161
  Clique: 16
  MIR: 271
  StrongCG: 12
  Flow cover: 77
  GUB cover: 1
  Zero half: 10
  Network: 22
  RLT: 11
  Relax-and-lift: 57
  BQP: 26
  PSD: 4

Explored 1 nodes (4978 simplex iterations) in 0.95 seconds (1.87 work units)
Thread count was 1 (of 20 available processors)

Solution count 0

Model is infeasible
Best objective -, best bound -, gap -

User-callback calls 916, time in user-callback 0.00 sec
